Q:[
30000	50000	100000
]

q:
[
0
8000
8000
8000
8000
8100
8000
8400
8400
8400
8400
8400
8400
8500
9000
10000]

L:
[
30000	50000	100000
30000	50000	100000
30000	50000	100000
30000	50000	100000
30000	50000	100000
30000	50000	60000
30000	25000	20000
30000	37500	40000
30000	25000	20000
30000	25000	20000
30000	50000	100000
30000	50000	100000
30000	50000	100000
30000	50000	100000
30000	50000	100000
]

coord:
[
0	0
88	7
26	18
64	33
99	75
83	43
58	75
19	96
65	4
95	55
46	0
83	34
24	73
46	79
15	78
81	96]



c:[1 1.3 2]

r:[2	3	5
10	10	10
5	7	10
10	10	10
10	10	10
5	7	10
2	3	5
2	3	5
1	2	5
2	3	5
3	5	7
10	10	10
5	7	10
10	10	10
10	10	10
]

